c
c /Users/conrad/Desktop/projet_binero/output/mini.dimacs
c
p cnf 20 78
1 0
3 0
-5 1 2 0
-6 1 2 0
-1 5 6 0
-2 5 6 0
5 -1 -2 0
5 -1 -2 0
1 -5 -6 0
2 -5 -6 0
-5 -1 2 0
-5 1 -2 0
6 -1 2 0
6 1 -2 0
5 1 2 0
5 -1 -2 0
-6 1 2 0
-6 -1 -2 0
-7 8 0
-9 3 4 0
-10 3 4 0
-3 9 10 0
-4 9 10 0
9 -3 -4 0
9 -3 -4 0
3 -9 -10 0
4 -9 -10 0
-9 -3 4 0
-9 3 -4 0
10 -3 4 0
10 3 -4 0
9 3 4 0
9 -3 -4 0
-10 3 4 0
-10 -3 -4 0
-11 12 0
-5 1 3 0
-6 1 3 0
-1 5 6 0
-3 5 6 0
5 -1 -3 0
5 -1 -3 0
1 -5 -6 0
3 -5 -6 0
-5 -1 3 0
-5 1 -3 0
6 -1 3 0
6 1 -3 0
5 1 3 0
5 -1 -3 0
-6 1 3 0
-6 -1 -3 0
-15 20 0
-9 2 4 0
-10 2 4 0
-2 9 10 0
-4 9 10 0
9 -2 -4 0
9 -2 -4 0
2 -9 -10 0
4 -9 -10 0
-9 -2 4 0
-9 2 -4 0
10 -2 4 0
10 2 -4 0
9 2 4 0
9 -2 -4 0
-10 2 4 0
-10 -2 -4 0
-15 20 0
-1 -3 -2 -4 0
-1 -3 2 4 0
1 3 -2 -4 0
1 3 2 4 0
-1 -2 -3 -4 0
-1 -2 3 4 0
1 2 -3 -4 0
1 2 3 4 0
